problems/csplib-prob015/SchursLemma-models/noch/O2/lingeling/model_1_2-7-17-solution000001.eprime-solution
language ESSENCE' 1.0

letting boxes_PartitionAsSet_ExplicitR6_ExplicitVarSizeWithDummy be
        [[1, 3, 5, 7, 9, 11, 13, 18, 18, 18, 18, 18, 18, 18, 18, 18, 18; int(1..17)],
         [2, 6, 18, 18, 18, 18, 18, 18, 18, 18, 18, 18, 18, 18, 18, 18, 18; int(1..17)],
         [4, 8, 18, 18, 18, 18, 18, 18, 18, 18, 18, 18, 18, 18, 18, 18, 18; int(1..17)],
         [10, 18, 18, 18, 18, 18, 18, 18, 18, 18, 18, 18, 18, 18, 18, 18, 18; int(1..17)],
         [12, 14, 15, 18, 18, 18, 18, 18, 18, 18, 18, 18, 18, 18, 18, 18, 18; int(1..17)],
         [16, 18, 18, 18, 18, 18, 18, 18, 18, 18, 18, 18, 18, 18, 18, 18, 18; int(1..17)],
         [17, 18, 18, 18, 18, 18, 18, 18, 18, 18, 18, 18, 18, 18, 18, 18, 18; int(1..17)]; int(1..7)]
