problems/csplib-prob015/SchursLemma-models/noch/O2/lingeling/model_1_2-7-17-solution000001.solution
language Essence 1.3

letting boxes be partition({1, 3, 5, 7, 9, 11, 13}, {2, 6}, {4, 8}, {10}, {12, 14, 15}, {16}, {17})
